NAME: mp12
TYPE: ATSP
DIMENSION: 12
BEST_KNOWN: 175
EDGE_WEIGHT_SECTION 
-1 2 98 2 52 55 5 4 58 18 50 36 
86 -1 40 28 83 80 79 30 64 8 89 79 
37 71 -1 51 64 84 71 58 85 62 68 86 
63 17 56 -1 29 35 90 80 50 55 71 93 
49 33 41 34 -1 14 40 20 54 83 39 81 
20 83 15 68 1 -1 13 88 72 34 22 75 
92 67 6 47 83 11 -1 56 74 18 64 51 
93 4 93 31 78 31 95 -1 13 32 45 57 
16 52 77 40 20 39 3 37 -1 100 12 26 
36 22 24 28 13 37 63 67 92 -1 66 100 
18 55 31 4 33 51 42 23 30 39 -1 33 
3 16 31 82 30 73 55 92 25 54 20 -1 
